succeed=True
[CUDA] cuda: usage: 5.43 GB
0 :  {link #0 : 1}, {link #1 : 2}, {link #2 : 3},
1 :  {link #0 : 2}, {link #1 : 3}, {link #2 : 0},
2 :  {link #0 : 3}, {link #1 : 0}, {link #2 : 1},
3 :  {link #0 : 0}, {link #1 : 1}, {link #2 : 2},
0 :  {link #0 : 1}, {link #1 : 2}, {link #2 : 3},
1 :  {link #0 : 2}, {link #1 : 3}, {link #2 : 0},
2 :  {link #0 : 3}, {link #1 : 0}, {link #2 : 1},
3 :  {link #0 : 0}, {link #1 : 1}, {link #2 : 2},
0 :  {link #0 : 1}, {link #1 : 2}, {link #2 : 3},
1 :  {link #0 : 2}, {link #1 : 3}, {link #2 : 0},
2 :  {link #0 : 3}, {link #1 : 0}, {link #2 : 1},
3 :  {link #0 : 0}, {link #1 : 1}, {link #2 : 2},
0 : local 80, cpu 0 {link #0 : g1 0}, {link #1 : g2 0}, {link #2 : g3 0},
1 : local 80, cpu 0 {link #0 : g2 0}, {link #1 : g3 0}, {link #2 : g0 0},
2 : local 80, cpu 0 {link #0 : g3 0}, {link #1 : g0 0}, {link #2 : g1 0},
3 : local 80, cpu 0 {link #0 : g0 0}, {link #1 : g1 0}, {link #2 : g2 0},
0 : local 80, cpu 0 {link #0 : g1 0}, {link #1 : g2 0}, {link #2 : g3 0},
1 : local 80, cpu 0 {link #0 : g2 0}, {link #1 : g3 0}, {link #2 : g0 0},
2 : local 80, cpu 0 {link #0 : g3 0}, {link #1 : g0 0}, {link #2 : g1 0},
3 : local 80, cpu 0 {link #0 : g0 0}, {link #1 : g1 0}, {link #2 : g2 0},
0 : local 80, cpu 0 {link #0 : g1 0}, {link #1 : g2 0}, {link #2 : g3 0},
1 : local 80, cpu 0 {link #0 : g2 0}, {link #1 : g3 0}, {link #2 : g0 0},
2 : local 80, cpu 0 {link #0 : g3 0}, {link #1 : g0 0}, {link #2 : g1 0},
3 : local 80, cpu 0 {link #0 : g0 0}, {link #1 : g1 0}, {link #2 : g2 0},
0 :  {link #0 : 1}, {link #1 : 2}, {link #2 : 3},
1 :  {link #0 : 2}, {link #1 : 3}, {link #2 : 0},
2 :  {link #0 : 3}, {link #1 : 0}, {link #2 : 1},
3 :  {link #0 : 0}, {link #1 : 1}, {link #2 : 2},
0 : local 80, cpu 0 {link #0 : g1 0}, {link #1 : g2 0}, {link #2 : g3 0},
1 : local 80, cpu 0 {link #0 : g2 0}, {link #1 : g3 0}, {link #2 : g0 0},
2 : local 80, cpu 0 {link #0 : g3 0}, {link #1 : g0 0}, {link #2 : g1 0},
3 : local 80, cpu 0 {link #0 : g0 0}, {link #1 : g1 0}, {link #2 : g2 0},
Set parameter WLSAccessID
Set parameter WLSSecret
Set parameter LicenseID
Set parameter TimeLimit to value 200
Set parameter MIPGap to value 0.05
Set parameter LogFile to value "cppsolver.log"
Set parameter Threads to value 40
Academic license - for non-commercial use only - registered to xiaoniu.sxn@sjtu.edu.cn
Gurobi Optimizer version 9.5.1 build v9.5.1rc2 (linux64)
Thread count: 40 physical cores, 80 logical processors, using up to 40 threads
Academic license - for non-commercial use only - registered to xiaoniu.sxn@sjtu.edu.cn
Optimize a model with 55352 rows, 18093 columns and 148984 nonzeros
Model fingerprint: 0xd1f9ec0f
Variable types: 5 continuous, 18088 integer (18088 binary)
Coefficient statistics:
  Matrix range     [1e-03, 2e+02]
  Objective range  [1e+00, 1e+00]
  Bounds range     [1e+00, 1e+00]
  RHS range        [1e+00, 2e+02]
Found heuristic solution: objective 2.000000e+09
Presolve removed 38307 rows and 0 columns
Presolve time: 0.18s
Presolved: 17045 rows, 18093 columns, 69181 nonzeros
Found heuristic solution: objective 7872.7502796
Variable types: 5 continuous, 18088 integer (18088 binary)

Root relaxation: objective 3.106108e+02, 16220 iterations, 1.03 seconds (1.13 work units)

    Nodes    |    Current Node    |     Objective Bounds      |     Work
 Expl Unexpl |  Obj  Depth IntInf | Incumbent    BestBd   Gap | It/Node Time

     0     0  310.61083    0   43 7872.75028  310.61083  96.1%     -    2s
H    0     0                     323.7252219  310.61083  4.05%     -    2s

Explored 1 nodes (32501 simplex iterations) in 2.08 seconds (2.06 work units)
Thread count was 40 (of 80 available processors)

Solution count 3: 323.725 7872.75 2e+09 

Optimal solution found (tolerance 5.00e-02)
Best objective 3.237252218973e+02, best bound 3.106108327591e+02, gap 4.0511%
coll_cache:optimal_local_rate=0.914315,0.921408,0.928422,0.926471,
coll_cache:optimal_remote_rate=0.0701144,0.063021,0.0560071,0.0579585,
coll_cache:optimal_cpu_rate=0.0155706,0.0155706,0.0155706,0.0155706,
z=323.725
test_result:init:feat_nbytes=56862697472
test_result:init:cache_nbytes=5743132160
test_result:init:feat_nbytes=56862697472
test_result:init:cache_nbytes=5743132160
test_result:init:feat_nbytes=56862697472
test_result:init:cache_nbytes=5743132160
test_result:init:feat_nbytes=56862697472
test_result:init:cache_nbytes=5743132160
    [Step(average) Profiler Level 1 E3 S147]
        L1  sample           0.004314 | send           0.000000
        L1  recv             0.000000 | copy           0.004707 | convert time 0.000000 | train  0.008546
        L1  feature nbytes  520.49 MB | label nbytes 0.00 Bytes
        L1  id nbytes      0.00 Bytes | graph nbytes 0.00 Bytes
        L1  miss nbytes    0.00 Bytes | remote nbytes 0.00 Bytes
        L1  num nodes               0 | num samples           0
    [Step(average) Profiler Level 2 E3 S147]
        L2  shuffle     0.000000 | core sample  0.000000 | id remap        0.000000
        L2  graph copy  0.000000 | id copy      0.000000 | cache feat copy 0.004707
        L2  last layer sample time 0.000000 | size 0.000000
    [Step(average) Profiler Level 3 E3 S147]
        L3  khop sample coo  0.000000 | khop sort coo      0.000000 | khop count edge     0.000000 | khop compact edge 0.000000
        L3  walk sample coo  0.000000 | walk topk total    0.000000 | walk topk step1     0.000000 | walk topk step2   0.000000
        L3  walk topk step3  0.000000 | walk topk step4    0.000000 | walk topk step5     0.000000
        L3  walk topk step6  0.000000 | walk topk step7    0.000000
        L3  remap unique     0.000000 | remap populate     0.000000 | remap mapnode       0.000000 | remap mapedge     0.000000
        L3  cache get_index  0.000824 | cache copy_index   0.000000 | cache extract_miss  0.000000
        L3  cache copy_miss  0.000000 | cache combine_miss 0.000000 | cache combine cache 0.003851 | cache combine remote 0.000000
        L3  label extract  0.000000
    [Profiler Level Percentiles E3 S147]
        p50.00_tail_logl2featcopy=0.004838
        p90.00_tail_logl2featcopy=0.005000
        p95.00_tail_logl2featcopy=0.005036
        p99.00_tail_logl2featcopy=0.005387
        p99.90_tail_logl2featcopy=0.007025
[CUDA] cuda: usage: 12.80 GB
config:eval_tsp="2023-04-13 07:52:52"
config:num_worker=4
config:root_dir=/nvme/songxiaoniu/graph-learning/wholegraph
config:graph_name=ogbn-papers100M
config:epochs=4
config:batchsize=8000
config:skip_epoch=2
config:local_step=250
config:presc_epoch=2
config:neighbors=10,25
config:hiddensize=256
config:num_layer=2
config:model=sage
config:framework=dgl
config:dataloaderworkers=0
config:dropout=0.5
config:lr=0.003
config:use_nccl=False
config:use_amp=True
config:use_collcache=True
config:cache_percentage=0.1
config:cache_policy=coll_cache_asymm_link
config:omp_thread_num=40
config:unsupervised=False
config:classnum=172
config:global_barrier=<multiprocessing.synchronize.Barrier object at 0x7fb8d8902400>
config:worker_id=0
creating_intra_node_communicator root=0, local_size=4, world_size=4
Rank=0, Graph loaded.
!!!!Train_dataloader(with 37 items) enumerate latency: 1.4699163436889648
!!!!Train_data_list(with 37 items) enumerate latency: 8.58306884765625e-06, transfer latency: 1.456498622894287
epoch=4 total_steps=148
presamping
presamping takes 1.5963435173034668
start training...
[Epoch 0], time=1.7753140926361084, loss=5.042973518371582
[Epoch 1], time=0.6515030860900879, loss=4.946931838989258
[Epoch 2], time=0.6534099578857422, loss=4.861858367919922
[Epoch 3], time=0.652224063873291, loss=4.7867279052734375
|===========================================================================|
|                  PyTorch CUDA memory summary, device ID 0                 |
|---------------------------------------------------------------------------|
|            CUDA OOMs: 0            |        cudaMalloc retries: 0         |
|===========================================================================|
|        Metric         | Cur Usage  | Peak Usage | Tot Alloc  | Tot Freed  |
|---------------------------------------------------------------------------|
| Allocated memory      |   74018 KB |  396228 KB |  209366 MB |  209294 MB |
|       from large pool |   67454 KB |  389903 KB |  206875 MB |  206809 MB |
|       from small pool |    6564 KB |    9183 KB |    2491 MB |    2484 MB |
|---------------------------------------------------------------------------|
| Active memory         |   74018 KB |  396228 KB |  209366 MB |  209294 MB |
|       from large pool |   67454 KB |  389903 KB |  206875 MB |  206809 MB |
|       from small pool |    6564 KB |    9183 KB |    2491 MB |    2484 MB |
|---------------------------------------------------------------------------|
| GPU reserved memory   |     846 MB |     846 MB |     846 MB |       0 B  |
|       from large pool |     834 MB |     834 MB |     834 MB |       0 B  |
|       from small pool |      12 MB |      12 MB |      12 MB |       0 B  |
|---------------------------------------------------------------------------|
| Non-releasable memory |   26333 KB |  342111 KB |  188257 MB |  188232 MB |
|       from large pool |   22658 KB |  336045 KB |  185544 MB |  185522 MB |
|       from small pool |    3675 KB |    6916 KB |    2713 MB |    2710 MB |
|---------------------------------------------------------------------------|
| Allocations           |      55    |      69    |   23512    |   23457    |
|       from large pool |      11    |      22    |    8526    |    8515    |
|       from small pool |      44    |      49    |   14986    |   14942    |
|---------------------------------------------------------------------------|
| Active allocs         |      55    |      69    |   23512    |   23457    |
|       from large pool |      11    |      22    |    8526    |    8515    |
|       from small pool |      44    |      49    |   14986    |   14942    |
|---------------------------------------------------------------------------|
| GPU reserved segments |      20    |      20    |      20    |       0    |
|       from large pool |      14    |      14    |      14    |       0    |
|       from small pool |       6    |       6    |       6    |       0    |
|---------------------------------------------------------------------------|
| Non-releasable allocs |      21    |      33    |    9646    |    9625    |
|       from large pool |       5    |      14    |    5390    |    5385    |
|       from small pool |      16    |      23    |    4256    |    4240    |
|---------------------------------------------------------------------------|
| Oversize allocations  |       0    |       0    |       0    |       0    |
|---------------------------------------------------------------------------|
| Oversize GPU segments |       0    |       0    |       0    |       0    |
|===========================================================================|

[TRAIN_TIME] train time is 3.734027 seconds
[EPOCH_TIME] 0.933507 seconds, maybe large due to not enough epoch skipped.
[EPOCH_TIME] 0.652932 seconds
Rank=2, Graph loaded.
!!!!Train_dataloader(with 37 items) enumerate latency: 1.5065569877624512
!!!!Train_data_list(with 37 items) enumerate latency: 6.67572021484375e-06, transfer latency: 1.451155185699463
presamping
presamping takes 2.4677367210388184
Rank=1, Graph loaded.
!!!!Train_dataloader(with 37 items) enumerate latency: 1.8327882289886475
!!!!Train_data_list(with 37 items) enumerate latency: 7.152557373046875e-06, transfer latency: 1.811532735824585
presamping
presamping takes 2.167283773422241
Rank=3, Graph loaded.
!!!!Train_dataloader(with 37 items) enumerate latency: 1.5036625862121582
!!!!Train_data_list(with 37 items) enumerate latency: 1.1205673217773438e-05, transfer latency: 1.5075061321258545
presamping
presamping takes 2.4935829639434814

